(declare-fun y () Int)
(declare-fun x () Int)

(assert (
and (and (and (and (
= (+ (+ x x) 85) (/ (/ y (/ 47 39)) (* 37 22))
) (
> (/ (/ y (/ 32 4)) 99) 40
)) (and (
> (/ (/ (* (/ 33 33) y) 42) 55) (- (- x 80) x)
) (
< (/ (/ (* y (* 56 31)) 95) (/ 13 94)) (+ (/ 53 71) x)
))) (and (and (
= (/ (* x x) (/ 17 x)) (/ y 53)
) (
= (* y (/ 77 (/ 35 12))) (* x (+ (+ x x) (- 62 x)))
)) (and (
> (/ (* y 51) 78) (+ 100 60)
) (
not (= y (+ (* (/ (/ x x) 29) (- x 4)) (/ (+ x 64) x)))
)))) (and (and (and (
>= (* 42 (+ x (+ x (- x x)))) (* (* 15 21) y)
) (
> y (* 14 (* (+ 94 (+ 97 x)) (/ x x)))
)) (and (
> (* (* 10 11) y) (* (/ (/ (* x x) x) (* x 1)) x)
) (
> y (/ 8 (+ (/ x (* x 41)) (+ 8 52)))
))) (and (and (
< 9 (* 9 (* (/ y (/ 48 25)) 44))
) (
< y (/ (+ (/ (/ (+ 67 x) 10) x) x) x)
)) (and (
= (/ y 82) (+ (/ x (* 88 x)) (* (+ (+ x 22) x) (+ x 95)))
) (
not (= y (+ x (* (+ (/ 97 5) (- (/ (+ x 89) (+ 63 50)) x)) x)))
))))
))